p cnf 632 1543
1 0
16 -17 0
-16 17 0
18 -19 0
-18 19 0
15 -16 0
15 -18 0
-15 16 18 0
20 -21 0
-20 21 0
14 -15 0
14 -20 0
-14 15 20 0
-23 15 0
23 -15 0
24 21 0
-24 -21 0
22 -23 0
22 -24 0
-22 23 24 0
-13 14 0
-13 22 0
13 -14 -22 0
27 -17 0
-27 17 0
28 19 0
-28 -19 0
26 -27 0
26 -28 0
-26 27 28 0
29 -21 0
-29 21 0
25 -26 0
25 -29 0
-25 26 29 0
-12 13 0
-12 25 0
12 -13 -25 0
-31 26 0
31 -26 0
32 21 0
-32 -21 0
30 -31 0
30 -32 0
-30 31 32 0
-11 12 0
-11 30 0
11 -12 -30 0
35 17 0
-35 -17 0
36 -19 0
-36 19 0
34 -35 0
34 -36 0
-34 35 36 0
37 -21 0
-37 21 0
33 -34 0
33 -37 0
-33 34 37 0
-10 11 0
-10 33 0
10 -11 -33 0
-39 34 0
39 -34 0
40 21 0
-40 -21 0
38 -39 0
38 -40 0
-38 39 40 0
-9 10 0
-9 38 0
9 -10 -38 0
43 17 0
-43 -17 0
44 19 0
-44 -19 0
42 -43 0
42 -44 0
-42 43 44 0
45 -21 0
-45 21 0
41 -42 0
41 -45 0
-41 42 45 0
-8 9 0
-8 41 0
8 -9 -41 0
-46 41 0
46 -41 0
-7 8 0
-7 46 0
7 -8 -46 0
57 -58 0
-57 58 0
59 -60 0
-59 60 0
56 -57 0
56 -59 0
-56 57 59 0
61 -62 0
-61 62 0
55 -56 0
55 -61 0
-55 56 61 0
-64 56 0
64 -56 0
65 62 0
-65 -62 0
63 -64 0
63 -65 0
-63 64 65 0
-54 55 0
-54 63 0
54 -55 -63 0
68 -58 0
-68 58 0
69 60 0
-69 -60 0
67 -68 0
67 -69 0
-67 68 69 0
70 -62 0
-70 62 0
66 -67 0
66 -70 0
-66 67 70 0
-53 54 0
-53 66 0
53 -54 -66 0
-72 67 0
72 -67 0
73 62 0
-73 -62 0
71 -72 0
71 -73 0
-71 72 73 0
-52 53 0
-52 71 0
52 -53 -71 0
76 58 0
-76 -58 0
77 -60 0
-77 60 0
75 -76 0
75 -77 0
-75 76 77 0
78 -62 0
-78 62 0
74 -75 0
74 -78 0
-74 75 78 0
-51 52 0
-51 74 0
51 -52 -74 0
-80 75 0
80 -75 0
81 62 0
-81 -62 0
79 -80 0
79 -81 0
-79 80 81 0
-50 51 0
-50 79 0
50 -51 -79 0
84 58 0
-84 -58 0
85 60 0
-85 -60 0
83 -84 0
83 -85 0
-83 84 85 0
86 -62 0
-86 62 0
82 -83 0
82 -86 0
-82 83 86 0
-49 50 0
-49 82 0
49 -50 -82 0
-87 82 0
87 -82 0
-48 49 0
-48 87 0
48 -49 -87 0
-88 41 0
88 -41 0
-47 48 0
-47 88 0
47 -48 -88 0
6 -7 0
6 -47 0
-6 7 47 0
99 -100 0
-99 100 0
101 -102 0
-101 102 0
98 -99 0
98 -101 0
-98 99 101 0
103 -104 0
-103 104 0
97 -98 0
97 -103 0
-97 98 103 0
-106 98 0
106 -98 0
107 104 0
-107 -104 0
105 -106 0
105 -107 0
-105 106 107 0
-96 97 0
-96 105 0
96 -97 -105 0
110 -100 0
-110 100 0
111 102 0
-111 -102 0
109 -110 0
109 -111 0
-109 110 111 0
112 -104 0
-112 104 0
108 -109 0
108 -112 0
-108 109 112 0
-95 96 0
-95 108 0
95 -96 -108 0
-114 109 0
114 -109 0
115 104 0
-115 -104 0
113 -114 0
113 -115 0
-113 114 115 0
-94 95 0
-94 113 0
94 -95 -113 0
118 100 0
-118 -100 0
119 -102 0
-119 102 0
117 -118 0
117 -119 0
-117 118 119 0
120 -104 0
-120 104 0
116 -117 0
116 -120 0
-116 117 120 0
-93 94 0
-93 116 0
93 -94 -116 0
-122 117 0
122 -117 0
123 104 0
-123 -104 0
121 -122 0
121 -123 0
-121 122 123 0
-92 93 0
-92 121 0
92 -93 -121 0
126 100 0
-126 -100 0
127 102 0
-127 -102 0
125 -126 0
125 -127 0
-125 126 127 0
128 -104 0
-128 104 0
124 -125 0
124 -128 0
-124 125 128 0
-91 92 0
-91 124 0
91 -92 -124 0
-129 124 0
129 -124 0
-90 91 0
-90 129 0
90 -91 -129 0
-131 41 0
131 -41 0
-132 82 0
132 -82 0
-130 131 0
-130 132 0
130 -131 -132 0
-89 90 0
-89 130 0
89 -90 -130 0
5 -6 0
5 -89 0
-5 6 89 0
143 -144 0
-143 144 0
145 -146 0
-145 146 0
142 -143 0
142 -145 0
-142 143 145 0
147 -148 0
-147 148 0
141 -142 0
141 -147 0
-141 142 147 0
-150 142 0
150 -142 0
151 148 0
-151 -148 0
149 -150 0
149 -151 0
-149 150 151 0
-140 141 0
-140 149 0
140 -141 -149 0
154 -144 0
-154 144 0
155 146 0
-155 -146 0
153 -154 0
153 -155 0
-153 154 155 0
156 -148 0
-156 148 0
152 -153 0
152 -156 0
-152 153 156 0
-139 140 0
-139 152 0
139 -140 -152 0
-158 153 0
158 -153 0
159 148 0
-159 -148 0
157 -158 0
157 -159 0
-157 158 159 0
-138 139 0
-138 157 0
138 -139 -157 0
162 144 0
-162 -144 0
163 -146 0
-163 146 0
161 -162 0
161 -163 0
-161 162 163 0
164 -148 0
-164 148 0
160 -161 0
160 -164 0
-160 161 164 0
-137 138 0
-137 160 0
137 -138 -160 0
-166 161 0
166 -161 0
167 148 0
-167 -148 0
165 -166 0
165 -167 0
-165 166 167 0
-136 137 0
-136 165 0
136 -137 -165 0
170 144 0
-170 -144 0
171 146 0
-171 -146 0
169 -170 0
169 -171 0
-169 170 171 0
172 -148 0
-172 148 0
168 -169 0
168 -172 0
-168 169 172 0
-135 136 0
-135 168 0
135 -136 -168 0
-173 168 0
173 -168 0
-134 135 0
-134 173 0
134 -135 -173 0
-175 130 0
175 -130 0
-176 124 0
176 -124 0
-174 175 0
-174 176 0
174 -175 -176 0
-133 134 0
-133 174 0
133 -134 -174 0
4 -5 0
4 -133 0
-4 5 133 0
187 -188 0
-187 188 0
189 -190 0
-189 190 0
186 -187 0
186 -189 0
-186 187 189 0
191 -192 0
-191 192 0
185 -186 0
185 -191 0
-185 186 191 0
-194 186 0
194 -186 0
195 192 0
-195 -192 0
193 -194 0
193 -195 0
-193 194 195 0
-184 185 0
-184 193 0
184 -185 -193 0
198 -188 0
-198 188 0
199 190 0
-199 -190 0
197 -198 0
197 -199 0
-197 198 199 0
200 -192 0
-200 192 0
196 -197 0
196 -200 0
-196 197 200 0
-183 184 0
-183 196 0
183 -184 -196 0
-202 197 0
202 -197 0
203 192 0
-203 -192 0
201 -202 0
201 -203 0
-201 202 203 0
-182 183 0
-182 201 0
182 -183 -201 0
206 188 0
-206 -188 0
207 -190 0
-207 190 0
205 -206 0
205 -207 0
-205 206 207 0
208 -192 0
-208 192 0
204 -205 0
204 -208 0
-204 205 208 0
-181 182 0
-181 204 0
181 -182 -204 0
-210 205 0
210 -205 0
211 192 0
-211 -192 0
209 -210 0
209 -211 0
-209 210 211 0
-180 181 0
-180 209 0
180 -181 -209 0
214 188 0
-214 -188 0
215 190 0
-215 -190 0
213 -214 0
213 -215 0
-213 214 215 0
216 -192 0
-216 192 0
212 -213 0
212 -216 0
-212 213 216 0
-179 180 0
-179 212 0
179 -180 -212 0
-217 212 0
217 -212 0
-178 179 0
-178 217 0
178 -179 -217 0
-219 174 0
219 -174 0
-220 168 0
220 -168 0
-218 219 0
-218 220 0
218 -219 -220 0
-177 178 0
-177 218 0
177 -178 -218 0
3 -4 0
3 -177 0
-3 4 177 0
-228 218 0
228 -218 0
-229 212 0
229 -212 0
-227 228 0
-227 229 0
227 -228 -229 0
-230 3 0
230 -3 0
226 -227 0
226 -230 0
-226 227 230 0
241 -188 0
-241 188 0
242 190 0
-242 -190 0
-240 241 0
-240 242 0
240 -241 -242 0
243 -192 0
-243 192 0
-239 240 0
-239 243 0
239 -240 -243 0
246 -17 0
-246 17 0
247 19 0
-247 -19 0
-245 246 0
-245 247 0
245 -246 -247 0
248 21 0
-248 -21 0
-244 245 0
-244 248 0
244 -245 -248 0
-238 239 0
-238 244 0
238 -239 -244 0
-251 240 0
251 -240 0
252 192 0
-252 -192 0
-250 251 0
-250 252 0
250 -251 -252 0
-254 245 0
254 -245 0
255 -21 0
-255 21 0
-253 254 0
-253 255 0
253 -254 -255 0
-249 250 0
-249 253 0
249 -250 -253 0
237 -238 0
237 -249 0
-237 238 249 0
-257 250 0
257 -250 0
260 -17 0
-260 17 0
261 -19 0
-261 19 0
-259 260 0
-259 261 0
259 -260 -261 0
262 21 0
-262 -21 0
-258 259 0
-258 262 0
258 -259 -262 0
-256 257 0
-256 258 0
256 -257 -258 0
236 -237 0
236 -256 0
-236 237 256 0
266 188 0
-266 -188 0
267 -190 0
-267 190 0
-265 266 0
-265 267 0
265 -266 -267 0
268 -192 0
-268 192 0
-264 265 0
-264 268 0
264 -265 -268 0
-269 244 0
269 -244 0
-263 264 0
-263 269 0
263 -264 -269 0
235 -236 0
235 -263 0
-235 236 263 0
-272 265 0
272 -265 0
273 192 0
-273 -192 0
-271 272 0
-271 273 0
271 -272 -273 0
276 17 0
-276 -17 0
277 -19 0
-277 19 0
-275 276 0
-275 277 0
275 -276 -277 0
278 -21 0
-278 21 0
-274 275 0
-274 278 0
274 -275 -278 0
-270 271 0
-270 274 0
270 -271 -274 0
234 -235 0
234 -270 0
-234 235 270 0
282 -188 0
-282 188 0
283 -190 0
-283 190 0
-281 282 0
-281 283 0
281 -282 -283 0
284 192 0
-284 -192 0
-280 281 0
-280 284 0
280 -281 -284 0
287 17 0
-287 -17 0
288 19 0
-288 -19 0
-286 287 0
-286 288 0
286 -287 -288 0
289 -21 0
-289 21 0
-285 286 0
-285 289 0
285 -286 -289 0
-279 280 0
-279 285 0
279 -280 -285 0
233 -234 0
233 -279 0
-233 234 279 0
293 188 0
-293 -188 0
294 190 0
-294 -190 0
-292 293 0
-292 294 0
292 -293 -294 0
295 -192 0
-295 192 0
-291 292 0
-291 295 0
291 -292 -295 0
-297 275 0
297 -275 0
298 21 0
-298 -21 0
-296 297 0
-296 298 0
296 -297 -298 0
-290 291 0
-290 296 0
290 -291 -296 0
232 -233 0
232 -290 0
-232 233 290 0
-301 292 0
301 -292 0
302 192 0
-302 -192 0
-300 301 0
-300 302 0
300 -301 -302 0
-303 285 0
303 -285 0
-299 300 0
-299 303 0
299 -300 -303 0
231 -232 0
231 -299 0
-231 232 299 0
-225 226 0
-225 231 0
225 -226 -231 0
-305 226 0
305 -226 0
-314 239 0
314 -239 0
317 -58 0
-317 58 0
318 60 0
-318 -60 0
-316 317 0
-316 318 0
316 -317 -318 0
319 62 0
-319 -62 0
-315 316 0
-315 319 0
315 -316 -319 0
-313 314 0
-313 315 0
313 -314 -315 0
-321 250 0
321 -250 0
-323 316 0
323 -316 0
324 -62 0
-324 62 0
-322 323 0
-322 324 0
322 -323 -324 0
-320 321 0
-320 322 0
320 -321 -322 0
312 -313 0
312 -320 0
-312 313 320 0
-326 250 0
326 -250 0
329 -58 0
-329 58 0
330 -60 0
-330 60 0
-328 329 0
-328 330 0
328 -329 -330 0
331 62 0
-331 -62 0
-327 328 0
-327 331 0
327 -328 -331 0
-325 326 0
-325 327 0
325 -326 -327 0
311 -312 0
311 -325 0
-311 312 325 0
-333 264 0
333 -264 0
-334 315 0
334 -315 0
-332 333 0
-332 334 0
332 -333 -334 0
310 -311 0
310 -332 0
-310 311 332 0
-336 271 0
336 -271 0
339 58 0
-339 -58 0
340 -60 0
-340 60 0
-338 339 0
-338 340 0
338 -339 -340 0
341 -62 0
-341 62 0
-337 338 0
-337 341 0
337 -338 -341 0
-335 336 0
-335 337 0
335 -336 -337 0
309 -310 0
309 -335 0
-309 310 335 0
-343 280 0
343 -280 0
346 58 0
-346 -58 0
347 60 0
-347 -60 0
-345 346 0
-345 347 0
345 -346 -347 0
348 -62 0
-348 62 0
-344 345 0
-344 348 0
344 -345 -348 0
-342 343 0
-342 344 0
342 -343 -344 0
308 -309 0
308 -342 0
-308 309 342 0
-350 291 0
350 -291 0
-352 338 0
352 -338 0
353 62 0
-353 -62 0
-351 352 0
-351 353 0
351 -352 -353 0
-349 350 0
-349 351 0
349 -350 -351 0
307 -308 0
307 -349 0
-307 308 349 0
-355 300 0
355 -300 0
-356 344 0
356 -344 0
-354 355 0
-354 356 0
354 -355 -356 0
306 -307 0
306 -354 0
-306 307 354 0
-304 305 0
-304 306 0
304 -305 -306 0
224 -225 0
224 -304 0
-224 225 304 0
-358 226 0
358 -226 0
-367 239 0
367 -239 0
370 -100 0
-370 100 0
371 102 0
-371 -102 0
-369 370 0
-369 371 0
369 -370 -371 0
372 104 0
-372 -104 0
-368 369 0
-368 372 0
368 -369 -372 0
-366 367 0
-366 368 0
366 -367 -368 0
-374 250 0
374 -250 0
-376 369 0
376 -369 0
377 -104 0
-377 104 0
-375 376 0
-375 377 0
375 -376 -377 0
-373 374 0
-373 375 0
373 -374 -375 0
365 -366 0
365 -373 0
-365 366 373 0
-379 250 0
379 -250 0
382 -100 0
-382 100 0
383 -102 0
-383 102 0
-381 382 0
-381 383 0
381 -382 -383 0
384 104 0
-384 -104 0
-380 381 0
-380 384 0
380 -381 -384 0
-378 379 0
-378 380 0
378 -379 -380 0
364 -365 0
364 -378 0
-364 365 378 0
-386 264 0
386 -264 0
-387 368 0
387 -368 0
-385 386 0
-385 387 0
385 -386 -387 0
363 -364 0
363 -385 0
-363 364 385 0
-389 271 0
389 -271 0
392 100 0
-392 -100 0
393 -102 0
-393 102 0
-391 392 0
-391 393 0
391 -392 -393 0
394 -104 0
-394 104 0
-390 391 0
-390 394 0
390 -391 -394 0
-388 389 0
-388 390 0
388 -389 -390 0
362 -363 0
362 -388 0
-362 363 388 0
-396 280 0
396 -280 0
399 100 0
-399 -100 0
400 102 0
-400 -102 0
-398 399 0
-398 400 0
398 -399 -400 0
401 -104 0
-401 104 0
-397 398 0
-397 401 0
397 -398 -401 0
-395 396 0
-395 397 0
395 -396 -397 0
361 -362 0
361 -395 0
-361 362 395 0
-403 291 0
403 -291 0
-405 391 0
405 -391 0
406 104 0
-406 -104 0
-404 405 0
-404 406 0
404 -405 -406 0
-402 403 0
-402 404 0
402 -403 -404 0
360 -361 0
360 -402 0
-360 361 402 0
-408 300 0
408 -300 0
-409 397 0
409 -397 0
-407 408 0
-407 409 0
407 -408 -409 0
359 -360 0
359 -407 0
-359 360 407 0
-357 358 0
-357 359 0
357 -358 -359 0
223 -224 0
223 -357 0
-223 224 357 0
-411 226 0
411 -226 0
-420 239 0
420 -239 0
423 -144 0
-423 144 0
424 146 0
-424 -146 0
-422 423 0
-422 424 0
422 -423 -424 0
425 148 0
-425 -148 0
-421 422 0
-421 425 0
421 -422 -425 0
-419 420 0
-419 421 0
419 -420 -421 0
-427 250 0
427 -250 0
-429 422 0
429 -422 0
430 -148 0
-430 148 0
-428 429 0
-428 430 0
428 -429 -430 0
-426 427 0
-426 428 0
426 -427 -428 0
418 -419 0
418 -426 0
-418 419 426 0
-432 250 0
432 -250 0
435 -144 0
-435 144 0
436 -146 0
-436 146 0
-434 435 0
-434 436 0
434 -435 -436 0
437 148 0
-437 -148 0
-433 434 0
-433 437 0
433 -434 -437 0
-431 432 0
-431 433 0
431 -432 -433 0
417 -418 0
417 -431 0
-417 418 431 0
-439 264 0
439 -264 0
-440 421 0
440 -421 0
-438 439 0
-438 440 0
438 -439 -440 0
416 -417 0
416 -438 0
-416 417 438 0
-442 271 0
442 -271 0
445 144 0
-445 -144 0
446 -146 0
-446 146 0
-444 445 0
-444 446 0
444 -445 -446 0
447 -148 0
-447 148 0
-443 444 0
-443 447 0
443 -444 -447 0
-441 442 0
-441 443 0
441 -442 -443 0
415 -416 0
415 -441 0
-415 416 441 0
-449 280 0
449 -280 0
452 144 0
-452 -144 0
453 146 0
-453 -146 0
-451 452 0
-451 453 0
451 -452 -453 0
454 -148 0
-454 148 0
-450 451 0
-450 454 0
450 -451 -454 0
-448 449 0
-448 450 0
448 -449 -450 0
414 -415 0
414 -448 0
-414 415 448 0
-456 291 0
456 -291 0
-458 444 0
458 -444 0
459 148 0
-459 -148 0
-457 458 0
-457 459 0
457 -458 -459 0
-455 456 0
-455 457 0
455 -456 -457 0
413 -414 0
413 -455 0
-413 414 455 0
-461 300 0
461 -300 0
-462 450 0
462 -450 0
-460 461 0
-460 462 0
460 -461 -462 0
412 -413 0
412 -460 0
-412 413 460 0
-410 411 0
-410 412 0
410 -411 -412 0
222 -223 0
222 -410 0
-222 223 410 0
-464 226 0
464 -226 0
-473 239 0
473 -239 0
-474 250 0
474 -250 0
-472 473 0
-472 474 0
472 -473 -474 0
-476 250 0
476 -250 0
-477 239 0
477 -239 0
-475 476 0
-475 477 0
475 -476 -477 0
471 -472 0
471 -475 0
-471 472 475 0
-479 250 0
479 -250 0
-480 280 0
480 -280 0
-478 479 0
-478 480 0
478 -479 -480 0
470 -471 0
470 -478 0
-470 471 478 0
-482 264 0
482 -264 0
-483 250 0
483 -250 0
-481 482 0
-481 483 0
481 -482 -483 0
469 -470 0
469 -481 0
-469 470 481 0
-485 271 0
485 -271 0
-486 264 0
486 -264 0
-484 485 0
-484 486 0
484 -485 -486 0
468 -469 0
468 -484 0
-468 469 484 0
-488 280 0
488 -280 0
-489 291 0
489 -291 0
-487 488 0
-487 489 0
487 -488 -489 0
467 -468 0
467 -487 0
-467 468 487 0
-491 291 0
491 -291 0
-492 271 0
492 -271 0
-490 491 0
-490 492 0
490 -491 -492 0
466 -467 0
466 -490 0
-466 467 490 0
-494 300 0
494 -300 0
-495 291 0
495 -291 0
-493 494 0
-493 495 0
493 -494 -495 0
465 -466 0
465 -493 0
-465 466 493 0
-463 464 0
-463 465 0
463 -464 -465 0
221 -222 0
221 -463 0
-221 222 463 0
2 -3 0
2 -221 0
-2 3 221 0
-508 253 0
508 -253 0
-509 315 0
509 -315 0
-507 508 0
-507 509 0
507 -508 -509 0
-511 244 0
511 -244 0
-512 322 0
512 -322 0
-510 511 0
-510 512 0
510 -511 -512 0
506 -507 0
506 -510 0
-506 507 510 0
-514 244 0
514 -244 0
-515 327 0
515 -327 0
-513 514 0
-513 515 0
513 -514 -515 0
505 -506 0
505 -513 0
-505 506 513 0
-517 274 0
517 -274 0
-518 315 0
518 -315 0
-516 517 0
-516 518 0
516 -517 -518 0
504 -505 0
504 -516 0
-504 505 516 0
-520 296 0
520 -296 0
-521 337 0
521 -337 0
-519 520 0
-519 521 0
519 -520 -521 0
503 -504 0
503 -519 0
-503 504 519 0
-523 258 0
523 -258 0
-524 344 0
524 -344 0
-522 523 0
-522 524 0
522 -523 -524 0
502 -503 0
502 -522 0
-502 503 522 0
-526 285 0
526 -285 0
-527 351 0
527 -351 0
-525 526 0
-525 527 0
525 -526 -527 0
501 -502 0
501 -525 0
-501 502 525 0
-530 286 0
530 -286 0
531 21 0
-531 -21 0
-529 530 0
-529 531 0
529 -530 -531 0
-532 344 0
532 -344 0
-528 529 0
-528 532 0
528 -529 -532 0
500 -501 0
500 -528 0
-500 501 528 0
-541 322 0
541 -322 0
-542 368 0
542 -368 0
-540 541 0
-540 542 0
540 -541 -542 0
-544 315 0
544 -315 0
-545 375 0
545 -375 0
-543 544 0
-543 545 0
543 -544 -545 0
539 -540 0
539 -543 0
-539 540 543 0
-547 315 0
547 -315 0
-548 380 0
548 -380 0
-546 547 0
-546 548 0
546 -547 -548 0
538 -539 0
538 -546 0
-538 539 546 0
-550 337 0
550 -337 0
-551 368 0
551 -368 0
-549 550 0
-549 551 0
549 -550 -551 0
537 -538 0
537 -549 0
-537 538 549 0
-553 351 0
553 -351 0
-554 390 0
554 -390 0
-552 553 0
-552 554 0
552 -553 -554 0
536 -537 0
536 -552 0
-536 537 552 0
-556 327 0
556 -327 0
-557 397 0
557 -397 0
-555 556 0
-555 557 0
555 -556 -557 0
535 -536 0
535 -555 0
-535 536 555 0
-559 344 0
559 -344 0
-560 404 0
560 -404 0
-558 559 0
-558 560 0
558 -559 -560 0
534 -535 0
534 -558 0
-534 535 558 0
-563 345 0
563 -345 0
564 62 0
-564 -62 0
-562 563 0
-562 564 0
562 -563 -564 0
-565 397 0
565 -397 0
-561 562 0
-561 565 0
561 -562 -565 0
533 -534 0
533 -561 0
-533 534 561 0
-499 500 0
-499 533 0
499 -500 -533 0
-574 375 0
574 -375 0
-575 421 0
575 -421 0
-573 574 0
-573 575 0
573 -574 -575 0
-577 368 0
577 -368 0
-578 428 0
578 -428 0
-576 577 0
-576 578 0
576 -577 -578 0
572 -573 0
572 -576 0
-572 573 576 0
-580 368 0
580 -368 0
-581 433 0
581 -433 0
-579 580 0
-579 581 0
579 -580 -581 0
571 -572 0
571 -579 0
-571 572 579 0
-583 390 0
583 -390 0
-584 421 0
584 -421 0
-582 583 0
-582 584 0
582 -583 -584 0
570 -571 0
570 -582 0
-570 571 582 0
-586 404 0
586 -404 0
-587 443 0
587 -443 0
-585 586 0
-585 587 0
585 -586 -587 0
569 -570 0
569 -585 0
-569 570 585 0
-589 380 0
589 -380 0
-590 450 0
590 -450 0
-588 589 0
-588 590 0
588 -589 -590 0
568 -569 0
568 -588 0
-568 569 588 0
-592 397 0
592 -397 0
-593 457 0
593 -457 0
-591 592 0
-591 593 0
591 -592 -593 0
567 -568 0
567 -591 0
-567 568 591 0
-596 398 0
596 -398 0
597 104 0
-597 -104 0
-595 596 0
-595 597 0
595 -596 -597 0
-598 450 0
598 -450 0
-594 595 0
-594 598 0
594 -595 -598 0
566 -567 0
566 -594 0
-566 567 594 0
-498 499 0
-498 566 0
498 -499 -566 0
-607 428 0
607 -428 0
-608 250 0
608 -250 0
-606 607 0
-606 608 0
606 -607 -608 0
-610 421 0
610 -421 0
-611 239 0
611 -239 0
-609 610 0
-609 611 0
609 -610 -611 0
605 -606 0
605 -609 0
-605 606 609 0
-613 421 0
613 -421 0
-614 280 0
614 -280 0
-612 613 0
-612 614 0
612 -613 -614 0
604 -605 0
604 -612 0
-604 605 612 0
-616 443 0
616 -443 0
-617 250 0
617 -250 0
-615 616 0
-615 617 0
615 -616 -617 0
603 -604 0
603 -615 0
-603 604 615 0
-619 457 0
619 -457 0
-620 264 0
620 -264 0
-618 619 0
-618 620 0
618 -619 -620 0
602 -603 0
602 -618 0
-602 603 618 0
-622 433 0
622 -433 0
-623 291 0
623 -291 0
-621 622 0
-621 623 0
621 -622 -623 0
601 -602 0
601 -621 0
-601 602 621 0
-625 450 0
625 -450 0
-626 271 0
626 -271 0
-624 625 0
-624 626 0
624 -625 -626 0
600 -601 0
600 -624 0
-600 601 624 0
-629 451 0
629 -451 0
630 148 0
-630 -148 0
-628 629 0
-628 630 0
628 -629 -630 0
-631 291 0
631 -291 0
-627 628 0
-627 631 0
627 -628 -631 0
599 -600 0
599 -627 0
-599 600 627 0
-497 498 0
-497 599 0
497 -498 -599 0
-632 529 0
632 -529 0
-496 497 0
-496 632 0
496 -497 -632 0
-1 2 0
-1 496 0
1 -2 -496 0
